(set-info :smt-lib-version 2.6)
(set-logic QF_NIA)
(set-info :source |AProve team, see http://aprove.informatik.rwth-aachen.de/, submitted for SMT-COMP 2014|)
(set-info :category "industrial")
(set-info :status sat)
(declare-fun b__95 () Int)
(declare-fun a__31 () Int)
(declare-fun a__54 () Int)
(declare-fun a__34 () Int)
(declare-fun a__41 () Int)
(declare-fun a__45 () Int)
(declare-fun a__6 () Int)
(declare-fun a__56 () Int)
(declare-fun a__57 () Int)
(declare-fun a__61 () Int)
(declare-fun a__62 () Int)
(declare-fun a__47 () Int)
(declare-fun a__48 () Int)
(declare-fun a__49 () Int)
(declare-fun a__52 () Int)
(declare-fun a__11 () Int)
(declare-fun a__12 () Int)
(declare-fun a__32 () Int)
(declare-fun a__21 () Int)
(declare-fun a__78 () Int)
(declare-fun a__51 () Int)
(declare-fun a__79 () Int)
(declare-fun a__81 () Int)
(declare-fun a__82 () Int)
(declare-fun a__26 () Int)
(declare-fun a__23 () Int)
(declare-fun a__90 () Int)
(declare-fun a__74 () Int)
(declare-fun a__75 () Int)
(declare-fun a__76 () Int)
(declare-fun a__88 () Int)
(declare-fun a__17 () Int)
(declare-fun a__92 () Int)
(declare-fun a__87 () Int)
(declare-fun b__96 () Int)
(declare-fun a__14 () Int)
(declare-fun a__84 () Int)
(declare-fun a__15 () Int)
(declare-fun b__97 () Int)
(declare-fun a__4 () Int)
(declare-fun a__2 () Int)
(declare-fun a__8 () Int)
(declare-fun a__28 () Int)
(declare-fun a__24 () Int)
(declare-fun a__9 () Int)
(declare-fun a__19 () Int)
(declare-fun a__36 () Int)
(declare-fun a__39 () Int)
(declare-fun a__37 () Int)
(declare-fun a__43 () Int)
(declare-fun a__59 () Int)
(declare-fun a__18 () Int)
(declare-fun a__63 () Int)
(declare-fun a__64 () Int)
(declare-fun a__65 () Int)
(declare-fun a__66 () Int)
(declare-fun a__3 () Int)
(declare-fun a__67 () Int)
(declare-fun a__68 () Int)
(declare-fun a__42 () Int)
(declare-fun a__69 () Int)
(declare-fun a__70 () Int)
(declare-fun a__35 () Int)
(declare-fun a__7 () Int)
(declare-fun a__20 () Int)
(declare-fun a__58 () Int)
(declare-fun a__13 () Int)
(declare-fun a__38 () Int)
(declare-fun a__29 () Int)
(declare-fun a__22 () Int)
(declare-fun a__27 () Int)
(declare-fun a__71 () Int)
(declare-fun a__72 () Int)
(declare-fun a__16 () Int)
(declare-fun a__73 () Int)
(declare-fun a__25 () Int)
(declare-fun a__77 () Int)
(declare-fun a__80 () Int)
(declare-fun a__83 () Int)
(declare-fun a__85 () Int)
(declare-fun a__86 () Int)
(declare-fun a__89 () Int)
(declare-fun a__91 () Int)
(declare-fun a__93 () Int)
(declare-fun a__94 () Int)
(declare-fun a__1 () Int)
(declare-fun a__5 () Int)
(declare-fun a__10 () Int)
(declare-fun a__30 () Int)
(declare-fun a__33 () Int)
(declare-fun a__40 () Int)
(declare-fun a__44 () Int)
(declare-fun a__46 () Int)
(declare-fun a__50 () Int)
(declare-fun a__53 () Int)
(declare-fun a__55 () Int)
(declare-fun a__60 () Int)
(assert (and (>= (+ 1 (* (- 0 1) b__95)) 0) (= (+ (* b__95 a__31) (* (- 0 1) a__31)) 0) (= (+ (* b__95 a__54) (* (- 0 1) a__54)) 0) (= (+ (* b__95 a__34) (* (- 0 1) a__34)) 0) (= (+ (* b__95 a__41) (* (- 0 1) a__41)) 0) (= (+ (* b__95 a__45) (* (- 0 1) a__45)) 0) (= (+ (* b__95 a__6) (* (- 0 1) a__6)) 0) (= (+ (* b__95 a__56) (* (- 0 1) a__56)) 0) (= (+ (* b__95 a__57) (* (- 0 1) a__57)) 0) (= (+ (* b__95 a__61) (* (- 0 1) a__61)) 0) (= (+ (* b__95 a__62) (* (- 0 1) a__62)) 0) (= (+ (* b__95 a__47) (* (- 0 1) a__47)) 0) (= (+ (* b__95 a__48) (* (- 0 1) a__48)) 0) (= (+ (* b__95 a__49) (* (- 0 1) a__49)) 0) (= (+ (* b__95 a__52) (* (- 0 1) a__52)) 0) (= (+ (* b__95 a__11) (* (- 0 1) a__11)) 0) (= (+ (* b__95 a__12) (* (- 0 1) a__12)) 0) (= (+ (* b__95 a__32 a__21) (* (- 0 1) (* a__32 a__21))) 0) (= (+ (* b__95 a__78 a__51) (* (- 0 1) (* a__78 a__51))) 0) (= (+ (* b__95 a__79 a__51) (* (- 0 1) (* a__79 a__51))) 0) (= (+ (* b__95 a__81 a__51) (* (- 0 1) (* a__81 a__51))) 0) (= (+ (* b__95 a__82 a__51) (* (- 0 1) (* a__82 a__51))) 0) (= (+ (* b__95 a__51 a__26) (* (- 0 1) (* a__51 a__26))) 0) (= (+ (* b__95 a__32 a__78 a__23) (* (- 0 1) (* a__32 a__78 a__23))) 0) (= (+ (* b__95 a__32 a__79 a__23) (* (- 0 1) (* a__32 a__79 a__23))) 0) (= (+ (* b__95 a__32 a__81 a__23) (* (- 0 1) (* a__32 a__81 a__23))) 0) (= (+ (* b__95 a__32 a__82 a__23) (* (- 0 1) (* a__32 a__82 a__23))) 0) (= (+ (* b__95 a__90 a__74 a__51) (* (- 0 1) (* a__90 a__74 a__51))) 0) (= (+ (* b__95 a__90 a__75 a__51) (* (- 0 1) (* a__90 a__75 a__51))) 0) (= (+ (* b__95 a__90 a__76 a__51) (* (- 0 1) (* a__90 a__76 a__51))) 0) (= (+ (* b__95 a__90 a__88 a__51) (* (- 0 1) (* a__90 a__88 a__51))) 0) (= (+ (* b__95 a__90 a__51 a__17) (* (- 0 1) (* a__90 a__51 a__17))) 0) (= (+ (* b__95 a__32 a__90 a__74 a__23) (* (- 0 1) (* a__32 a__90 a__74 a__23))) 0) (= (+ (* b__95 a__32 a__90 a__75 a__23) (* (- 0 1) (* a__32 a__90 a__75 a__23))) 0) (= (+ (* b__95 a__32 a__90 a__76 a__23) (* (- 0 1) (* a__32 a__90 a__76 a__23))) 0) (= (+ (* b__95 a__32 a__90 a__88 a__23) (* (- 0 1) (* a__32 a__90 a__88 a__23))) 0) (= (+ (* b__95 a__32 a__90 a__17 a__23) (* (- 0 1) (* a__32 a__90 a__17 a__23))) 0) (= (+ (* b__95 a__32 a__92 a__26 a__23) (* (- 0 1) (* a__32 a__92 a__26 a__23))) 0) (= (+ (* b__95 a__32 a__90 a__87 a__26 a__23) (* (- 0 1) (* a__32 a__90 a__87 a__26 a__23))) 0) (>= (+ 1 (* (- 0 1) b__96)) 0) (= (+ (* b__96 a__31) (* (- 0 1) a__31)) 0) (= (+ (* b__96 a__90 a__51) (* (- 0 1) (* a__90 a__51))) 0) (= (+ (* b__96 a__11 a__14) (* (- 0 1) (* a__11 a__14))) 0) (= (+ (* b__96 a__32 a__90 a__23) (* (- 0 1) (* a__32 a__90 a__23))) 0) (= (+ (* b__96 a__54 a__84 a__14) (* (- 0 1) (* a__54 a__84 a__14))) 0) (= (+ (* b__96 a__34 a__84 a__14) (* (- 0 1) (* a__34 a__84 a__14))) 0) (= (+ (* b__96 a__41 a__84 a__14) (* (- 0 1) (* a__41 a__84 a__14))) 0) (= (+ (* b__96 a__45 a__84 a__14) (* (- 0 1) (* a__45 a__84 a__14))) 0) (= (+ (* b__96 a__6 a__84 a__14) (* (- 0 1) (* a__6 a__84 a__14))) 0) (= (+ (* b__96 a__56 a__84 a__14) (* (- 0 1) (* a__56 a__84 a__14))) 0) (= (+ (* b__96 a__57 a__84 a__14) (* (- 0 1) (* a__57 a__84 a__14))) 0) (= (+ (* b__96 a__61 a__84 a__14) (* (- 0 1) (* a__61 a__84 a__14))) 0) (= (+ (* b__96 a__62 a__84 a__14) (* (- 0 1) (* a__62 a__84 a__14))) 0) (= (+ (* b__96 a__47 a__84 a__14) (* (- 0 1) (* a__47 a__84 a__14))) 0) (= (+ (* b__96 a__48 a__84 a__14) (* (- 0 1) (* a__48 a__84 a__14))) 0) (= (+ (* b__96 a__49 a__84 a__14) (* (- 0 1) (* a__49 a__84 a__14))) 0) (= (+ (* b__96 a__52 a__84 a__14) (* (- 0 1) (* a__52 a__84 a__14))) 0) (= (+ (* b__96 a__84 a__12 a__14) (* (- 0 1) (* a__84 a__12 a__14))) 0) (= (+ (* b__96 a__32 a__84 a__14 a__21) (* (- 0 1) (* a__32 a__84 a__14 a__21))) 0) (= (+ (* b__96 a__78 a__51 a__84 a__14) (* (- 0 1) (* a__78 a__51 a__84 a__14))) 0) (= (+ (* b__96 a__79 a__51 a__84 a__14) (* (- 0 1) (* a__79 a__51 a__84 a__14))) 0) (= (+ (* b__96 a__90 a__11 a__15 a__23) (* (- 0 1) (* a__90 a__11 a__15 a__23))) 0) (= (+ (* b__96 a__81 a__51 a__84 a__14) (* (- 0 1) (* a__81 a__51 a__84 a__14))) 0) (= (+ (* b__96 a__82 a__51 a__84 a__14) (* (- 0 1) (* a__82 a__51 a__84 a__14))) 0) (= (+ (* b__96 a__51 a__84 a__14 a__26) (* (- 0 1) (* a__51 a__84 a__14 a__26))) 0) (= (+ (* b__96 a__32 a__78 a__84 a__14 a__23) (* (- 0 1) (* a__32 a__78 a__84 a__14 a__23))) 0) (= (+ (* b__96 a__32 a__79 a__84 a__14 a__23) (* (- 0 1) (* a__32 a__79 a__84 a__14 a__23))) 0) (= (+ (* b__96 a__32 a__81 a__84 a__14 a__23) (* (- 0 1) (* a__32 a__81 a__84 a__14 a__23))) 0) (= (+ (* b__96 a__32 a__82 a__84 a__14 a__23) (* (- 0 1) (* a__32 a__82 a__84 a__14 a__23))) 0) (= (+ (* b__96 a__54 a__90 a__84 a__15 a__23) (* (- 0 1) (* a__54 a__90 a__84 a__15 a__23))) 0) (= (+ (* b__96 a__34 a__90 a__84 a__15 a__23) (* (- 0 1) (* a__34 a__90 a__84 a__15 a__23))) 0) (= (+ (* b__96 a__41 a__90 a__84 a__15 a__23) (* (- 0 1) (* a__41 a__90 a__84 a__15 a__23))) 0) (= (+ (* b__96 a__45 a__90 a__84 a__15 a__23) (* (- 0 1) (* a__45 a__90 a__84 a__15 a__23))) 0) (= (+ (* b__96 a__6 a__90 a__84 a__15 a__23) (* (- 0 1) (* a__6 a__90 a__84 a__15 a__23))) 0) (= (+ (* b__96 a__56 a__90 a__84 a__15 a__23) (* (- 0 1) (* a__56 a__90 a__84 a__15 a__23))) 0) (= (+ (* b__96 a__57 a__90 a__84 a__15 a__23) (* (- 0 1) (* a__57 a__90 a__84 a__15 a__23))) 0) (= (+ (* b__96 a__90 a__61 a__84 a__15 a__23) (* (- 0 1) (* a__90 a__61 a__84 a__15 a__23))) 0) (= (+ (* b__96 a__90 a__62 a__84 a__15 a__23) (* (- 0 1) (* a__90 a__62 a__84 a__15 a__23))) 0) (= (+ (* b__96 a__90 a__47 a__84 a__15 a__23) (* (- 0 1) (* a__90 a__47 a__84 a__15 a__23))) 0) (= (+ (* b__96 a__90 a__48 a__84 a__15 a__23) (* (- 0 1) (* a__90 a__48 a__84 a__15 a__23))) 0) (= (+ (* b__96 a__90 a__49 a__84 a__15 a__23) (* (- 0 1) (* a__90 a__49 a__84 a__15 a__23))) 0) (= (+ (* b__96 a__90 a__52 a__84 a__15 a__23) (* (- 0 1) (* a__90 a__52 a__84 a__15 a__23))) 0) (= (+ (* b__96 a__90 a__84 a__12 a__15 a__23) (* (- 0 1) (* a__90 a__84 a__12 a__15 a__23))) 0) (= (+ (* b__96 a__32 a__92 a__84 a__14 a__26 a__23) (* (- 0 1) (* a__32 a__92 a__84 a__14 a__26 a__23))) 0) (>= (+ 1 (* (- 0 1) b__97)) 0) (= (+ (* b__97 a__51) (* (- 0 1) a__51)) 0) (= (+ (* b__97 a__31 a__87) (* (- 0 1) (* a__31 a__87))) 0) (= (+ (* b__97 a__32 a__23) (* (- 0 1) (* a__32 a__23))) 0) (= (+ (* b__97 a__87 a__11 a__14) (* (- 0 1) (* a__87 a__11 a__14))) 0) (= (+ (* b__97 a__11 a__15 a__23) (* (- 0 1) (* a__11 a__15 a__23))) 0) (= (+ (* b__97 a__31 a__84 a__15 a__23) (* (- 0 1) (* a__31 a__84 a__15 a__23))) 0) (= (+ (* b__97 a__54 a__87 a__84 a__14) (* (- 0 1) (* a__54 a__87 a__84 a__14))) 0) (= (+ (* b__97 a__54 a__84 a__15 a__23) (* (- 0 1) (* a__54 a__84 a__15 a__23))) 0) (= (+ (* b__97 a__34 a__87 a__84 a__14) (* (- 0 1) (* a__34 a__87 a__84 a__14))) 0) (= (+ (* b__97 a__34 a__84 a__15 a__23) (* (- 0 1) (* a__34 a__84 a__15 a__23))) 0) (= (+ (* b__97 a__41 a__87 a__84 a__14) (* (- 0 1) (* a__41 a__87 a__84 a__14))) 0) (= (+ (* b__97 a__41 a__84 a__15 a__23) (* (- 0 1) (* a__41 a__84 a__15 a__23))) 0) (= (+ (* b__97 a__45 a__87 a__84 a__14) (* (- 0 1) (* a__45 a__87 a__84 a__14))) 0) (= (+ (* b__97 a__45 a__84 a__15 a__23) (* (- 0 1) (* a__45 a__84 a__15 a__23))) 0) (= (+ (* b__97 a__6 a__87 a__84 a__14) (* (- 0 1) (* a__6 a__87 a__84 a__14))) 0) (= (+ (* b__97 a__6 a__84 a__15 a__23) (* (- 0 1) (* a__6 a__84 a__15 a__23))) 0) (= (+ (* b__97 a__56 a__87 a__84 a__14) (* (- 0 1) (* a__56 a__87 a__84 a__14))) 0) (= (+ (* b__97 a__56 a__84 a__15 a__23) (* (- 0 1) (* a__56 a__84 a__15 a__23))) 0) (= (+ (* b__97 a__57 a__87 a__84 a__14) (* (- 0 1) (* a__57 a__87 a__84 a__14))) 0) (= (+ (* b__97 a__57 a__84 a__15 a__23) (* (- 0 1) (* a__57 a__84 a__15 a__23))) 0) (= (+ (* b__97 a__61 a__87 a__84 a__14) (* (- 0 1) (* a__61 a__87 a__84 a__14))) 0) (= (+ (* b__97 a__61 a__84 a__15 a__23) (* (- 0 1) (* a__61 a__84 a__15 a__23))) 0) (= (+ (* b__97 a__62 a__87 a__84 a__14) (* (- 0 1) (* a__62 a__87 a__84 a__14))) 0) (= (+ (* b__97 a__62 a__84 a__15 a__23) (* (- 0 1) (* a__62 a__84 a__15 a__23))) 0) (= (+ (* b__97 a__47 a__87 a__84 a__14) (* (- 0 1) (* a__47 a__87 a__84 a__14))) 0) (= (+ (* b__97 a__47 a__84 a__15 a__23) (* (- 0 1) (* a__47 a__84 a__15 a__23))) 0) (= (+ (* b__97 a__48 a__87 a__84 a__14) (* (- 0 1) (* a__48 a__87 a__84 a__14))) 0) (= (+ (* b__97 a__48 a__84 a__15 a__23) (* (- 0 1) (* a__48 a__84 a__15 a__23))) 0) (= (+ (* b__97 a__49 a__87 a__84 a__14) (* (- 0 1) (* a__49 a__87 a__84 a__14))) 0) (= (+ (* b__97 a__49 a__84 a__15 a__23) (* (- 0 1) (* a__49 a__84 a__15 a__23))) 0) (= (+ (* b__97 a__87 a__52 a__84 a__14) (* (- 0 1) (* a__87 a__52 a__84 a__14))) 0) (= (+ (* b__97 a__87 a__84 a__12 a__14) (* (- 0 1) (* a__87 a__84 a__12 a__14))) 0) (= (+ (* b__97 a__52 a__84 a__15 a__23) (* (- 0 1) (* a__52 a__84 a__15 a__23))) 0) (= (+ (* b__97 a__84 a__12 a__15 a__23) (* (- 0 1) (* a__84 a__12 a__15 a__23))) 0) (= (+ (* b__97 a__32 a__87 a__84 a__14 a__21) (* (- 0 1) (* a__32 a__87 a__84 a__14 a__21))) 0) (>= (+ (* a__4 a__2) (* (- 0 1) a__6)) 0) (>= (+ (* a__8 a__6) (* (- 0 1) (* a__26 a__23 a__15 a__11)) (* (- 0 1) (* a__28 a__24 a__15 a__11))) 0) (>= (+ (* a__9 a__6) (* (- 0 1) (* a__19 a__17 a__14 a__14 a__11)) (* (- 0 1) (* a__19 a__21 a__15 a__14 a__11)) (* (- 0 1) (* a__19 a__12))) 0) (>= (+ a__12 (* (- 0 1) (* a__19 a__6))) 0) (>= (+ (* a__8 a__6) (* (- 0 1) (* a__26 a__23 a__32)) (* (- 0 1) (* a__28 a__24 a__32))) 0) (>= (+ (* a__9 a__6) (* (- 0 1) (* a__19 a__17 a__14 a__31)) (* (- 0 1) (* a__19 a__21 a__15 a__31))) 0) (>= (+ a__32 (* (- 0 1) a__2)) 0) (>= (+ (* a__21 a__2) (* (- 0 1) a__34)) 0) (>= (+ (* a__36 a__34) (* (- 0 1) (* a__19 a__39 a__31))) 0) (>= (+ (* a__37 a__34) (* (- 0 1) (* a__19 a__21 a__32))) 0) (>= (+ (* a__36 a__34) (* (- 0 1) (* a__19 a__41))) 0) (>= (+ (* a__4 a__41) (* (- 0 1) (* a__19 a__34))) 0) (>= (+ (* a__36 a__34) (* (- 0 1) a__2)) 0) (>= (+ (* a__23 a__2) (* (- 0 1) a__31)) 0) (>= (+ (* a__24 a__2) (* (- 0 1) a__32)) 0) (>= (+ (* a__28 a__2) (* (- 0 1) a__41)) 0) (>= (+ (* a__4 a__41) (* (- 0 1) a__2)) 0) (>= (+ (* a__43 a__41) (* (- 0 1) (* a__19 a__41))) 0) (>= (+ (* a__43 a__41) (* (- 0 1) a__2)) 0) (>= (+ (* a__37 a__34) (* (- 0 1) a__2)) 0) (>= (+ (* a__9 a__6) (* (- 0 1) (* a__19 a__17 a__31)) (* (- 0 1) (* a__19 a__21 a__32))) 0) (>= (+ (* a__9 a__6) (* (- 0 1) (* a__19 a__45))) 0) (>= (+ (* a__36 a__45) (* (- 0 1) (* a__19 a__39 a__14 a__47)) (* (- 0 1) (* a__19 a__48))) 0) (>= (+ (* a__37 a__45) (* (- 0 1) (* a__19 a__21 a__15 a__47)) (* (- 0 1) (* a__19 a__49))) 0) (>= (+ a__48 (* (- 0 1) (* a__19 a__26 a__51))) 0) (>= (+ a__49 (* (- 0 1) (* a__19 a__52))) 0) (>= (+ a__52 (* (- 0 1) (* a__19 a__45))) 0) (>= (+ (* a__36 a__45) (* (- 0 1) (* a__19 a__39 a__31))) 0) (>= (+ (* a__37 a__45) (* (- 0 1) (* a__19 a__21 a__32))) 0) (>= (+ (* a__36 a__45) (* (- 0 1) (* a__19 a__41))) 0) (>= (+ (* a__36 a__45) (* (- 0 1) a__2)) 0) (>= (+ (* a__37 a__45) (* (- 0 1) a__2)) 0) (>= (+ a__52 (* (- 0 1) a__2)) 0) (>= (+ a__48 (* (- 0 1) (* a__19 a__54))) 0) (>= (+ (* a__4 a__54) (* (- 0 1) (* a__19 a__59 a__56)) (* (- 0 1) (* a__19 a__57))) 0) (>= (+ a__57 (* (- 0 1) (* a__19 a__45))) 0) (>= (+ a__57 (* (- 0 1) a__2)) 0) (>= (+ (* a__4 a__54) (* (- 0 1) (* a__19 a__34))) 0) (>= (+ (* a__4 a__54) (* (- 0 1) a__2)) 0) (>= (+ (* a__43 a__54) (* (- 0 1) (* a__19 a__39 a__61)) (* (- 0 1) (* a__19 a__62))) 0) (>= (+ a__62 (* (- 0 1) (* a__19 a__54))) 0) (>= (+ (* a__43 a__54) (* (- 0 1) (* a__19 a__41))) 0) (>= (+ (* a__43 a__54) (* (- 0 1) a__2)) 0) (>= (+ a__62 (* (- 0 1) a__2)) 0) (>= (+ a__48 (* (- 0 1) a__2)) 0) (>= (+ a__49 (* (- 0 1) a__2)) 0) (>= (+ (* a__9 a__6) (* (- 0 1) a__2)) 0) (>= (+ (* a__8 a__6) (* (- 0 1) a__54)) 0) (>= (+ a__12 (* (- 0 1) a__2)) 0) (>= (+ (* b__95 a__18) (* b__95 a__63 a__19) (* (- 0 1) (* b__95 a__64))) 0) (>= (+ (* b__95 a__18) (* b__95 a__65 a__19) (* (- 0 1) (* b__95 a__66))) 0) (>= (+ (* b__95 a__18) (* b__95 a__3 a__19) (* (- 0 1) (* b__95 a__67))) 0) (>= (+ (* b__95 a__4 a__19) (* (- 0 1) (* b__95 a__68))) 0) (>= (+ (* b__95 a__18) (* b__95 a__42 a__19) (* (- 0 1) (* b__95 a__69))) 0) (>= (+ (* b__95 a__43 a__19) (* (- 0 1) (* b__95 a__70))) 0) (>= (+ (* b__95 a__18) (* b__95 a__35 a__19) (* (- 0 1) (* b__95 a__7))) 0) (>= (+ (* b__95 a__36 a__19) (* (- 0 1) (* b__95 a__8))) 0) (>= (+ (* b__95 a__37 a__19) (* (- 0 1) (* b__95 a__9))) 0) (>= (+ (* b__95 a__18) (* b__95 a__20 a__19) (* (- 0 1) (* b__95 a__58))) 0) (>= (+ (* b__95 a__21 a__19) (* (- 0 1) (* b__95 a__59))) 0) (>= (+ (* b__95 a__58) (* b__95 a__35 a__59) (* (- 0 1) (* b__95 a__13)) (* (- 0 1) (* b__95 a__38 a__14)) (* (- 0 1) (* b__95 a__18 a__39 a__14)) (* (- 0 1) (* b__95 a__20 a__15)) (* (- 0 1) (* b__95 a__18 a__21 a__15))) 0) (>= (+ (* b__95 a__36 a__59) (* (- 0 1) (* b__95 a__19 a__39 a__14))) 0) (>= (+ (* b__95 a__37 a__59) (* (- 0 1) (* b__95 a__19 a__21 a__15))) 0) (>= (+ (* b__95 a__13) (* b__95 a__29 a__14) (* (- 0 1) (* b__95 a__18))) 0) (>= (+ (* b__95 a__15) (* (- 0 1) (* b__95 a__19))) 0) (>= (+ (* b__95 a__18) (* b__95 a__22 a__19) (* (- 0 1) (* b__95 a__13))) 0) (>= (+ (* b__95 a__23 a__19) (* (- 0 1) (* b__95 a__14))) 0) (>= (+ (* b__95 a__24 a__19) (* (- 0 1) (* b__95 a__15))) 0) (>= (+ (* b__95 a__18) (* b__95 a__27 a__19) (* (- 0 1) (* b__95 a__38))) 0) (>= (+ (* b__95 a__28 a__19) (* (- 0 1) (* b__95 a__39))) 0) (>= (+ (* b__95 a__38) (* b__95 a__3 a__39) (* (- 0 1) (* b__95 a__58)) (* (- 0 1) (* b__95 a__18 a__59))) 0) (>= (+ (* b__95 a__4 a__39) (* (- 0 1) (* b__95 a__19 a__59))) 0) (>= (+ (* b__95 a__42 a__39) (* (- 0 1) (* b__95 a__18 a__39))) 0) (>= (+ (* b__95 a__43 a__39) (* (- 0 1) (* b__95 a__19 a__39))) 0) (>= (+ (* b__95 a__18) (* b__95 a__71 a__19) (* (- 0 1) (* b__95 a__72))) 0) (>= (+ (* b__95 a__19) (* (- 0 1) b__95)) 0) (>= (+ (* b__96 a__16) (* b__96 a__71 a__17) (* (- 0 1) (* b__96 a__29))) 0) (>= (+ (* b__96 a__16) (* b__96 a__35 a__17) (* (- 0 1) (* b__96 a__73)) (* (- 0 1) (* b__96 a__13 a__74)) (* (- 0 1) (* b__96 a__38 a__14 a__74)) (* (- 0 1) (* b__96 a__18 a__39 a__14 a__74)) (* (- 0 1) (* b__96 a__20 a__15 a__74)) (* (- 0 1) (* b__96 a__18 a__21 a__15 a__74)) (* (- 0 1) (* b__96 a__18 a__75)) (* (- 0 1) (* b__96 a__18 a__76))) 0) (>= (+ (* b__96 a__36 a__17) (* (- 0 1) (* b__96 a__19 a__39 a__14 a__74)) (* (- 0 1) (* b__96 a__19 a__75))) 0) (>= (+ (* b__96 a__37 a__17) (* (- 0 1) (* b__96 a__19 a__21 a__15 a__74)) (* (- 0 1) (* b__96 a__19 a__76))) 0) (>= (+ (* b__95 a__13) (* (- 0 1) (* b__95 a__22))) 0) (>= (+ (* b__95 a__14) (* (- 0 1) (* b__95 a__23))) 0) (>= (+ (* b__95 a__15) (* (- 0 1) (* b__95 a__24))) 0) (>= (+ (* b__97 a__25) (* b__97 a__65 a__26) (* (- 0 1) (* b__97 a__29))) 0) (>= (+ (* b__97 a__25) (* b__97 a__3 a__26) (* (- 0 1) (* b__97 a__77)) (* (- 0 1) (* b__97 a__58 a__78)) (* (- 0 1) (* b__97 a__18 a__59 a__78)) (* (- 0 1) (* b__97 a__18 a__79))) 0) (>= (+ (* b__97 a__4 a__26) (* (- 0 1) (* b__97 a__19 a__59 a__78)) (* (- 0 1) (* b__97 a__19 a__79))) 0) (>= (+ (* b__97 a__25) (* b__97 a__42 a__26) (* (- 0 1) (* b__97 a__80)) (* (- 0 1) (* b__97 a__38 a__81)) (* (- 0 1) (* b__97 a__18 a__39 a__81)) (* (- 0 1) (* b__97 a__18 a__82))) 0) (>= (+ (* b__97 a__43 a__26) (* (- 0 1) (* b__97 a__19 a__39 a__81)) (* (- 0 1) (* b__97 a__19 a__82))) 0) (>= (+ (* b__95 a__38) (* b__95 a__65 a__39) (* (- 0 1) (* b__95 a__29))) 0) (>= (+ (* b__95 a__38) (* (- 0 1) (* b__95 a__27))) 0) (>= (+ (* b__95 a__39) (* (- 0 1) (* b__95 a__28))) 0) (>= (+ (* b__95 a__58) (* b__95 a__71 a__59) (* (- 0 1) (* b__95 a__29))) 0) (>= (+ (* b__95 a__58) (* b__95 a__63 a__59) (* (- 0 1) (* b__95 a__29))) 0) (>= (+ (* b__95 a__58) (* (- 0 1) (* b__95 a__20))) 0) (>= (+ (* b__95 a__59) (* (- 0 1) (* b__95 a__21))) 0) (>= (+ (* b__95 a__67) (* b__95 a__7 a__68) (* (- 0 1) (* b__95 a__83)) (* (- 0 1) (* b__95 a__13 a__84)) (* (- 0 1) (* b__95 a__13 a__14 a__84)) (* (- 0 1) (* b__95 a__16 a__14 a__14 a__84)) (* (- 0 1) (* b__95 a__18 a__17 a__14 a__14 a__84)) (* (- 0 1) (* b__95 a__20 a__15 a__14 a__84)) (* (- 0 1) (* b__95 a__18 a__21 a__15 a__14 a__84)) (* (- 0 1) (* b__95 a__22 a__15 a__84)) (* (- 0 1) (* b__95 a__25 a__23 a__15 a__84)) (* (- 0 1) (* b__95 a__27 a__24 a__15 a__84)) (* (- 0 1) (* b__95 a__18 a__85))) 0) (>= (+ (* b__95 a__8 a__68) (* (- 0 1) (* b__95 a__26 a__23 a__15 a__84)) (* (- 0 1) (* b__95 a__28 a__24 a__15 a__84))) 0) (>= (+ (* b__95 a__9 a__68) (* (- 0 1) (* b__95 a__19 a__17 a__14 a__14 a__84)) (* (- 0 1) (* b__95 a__19 a__21 a__15 a__14 a__84)) (* (- 0 1) (* b__95 a__19 a__85))) 0) (>= (+ (* b__96 a__73) (* b__96 a__29 a__74) (* (- 0 1) (* b__96 a__86)) (* (- 0 1) (* b__96 a__25 a__87)) (* (- 0 1) (* b__96 a__18 a__26 a__87)) (* (- 0 1) (* b__96 a__18 a__88))) 0) (>= (+ (* b__96 a__75) (* (- 0 1) (* b__96 a__19 a__26 a__87))) 0) (>= (+ (* b__96 a__76) (* (- 0 1) (* b__96 a__19 a__88))) 0) (>= (+ (* b__97 a__77) (* b__97 a__29 a__78) (* (- 0 1) (* b__97 a__89)) (* (- 0 1) (* b__97 a__16 a__90)) (* (- 0 1) (* b__97 a__18 a__17 a__90))) 0) (>= (+ (* b__97 a__79) (* (- 0 1) (* b__97 a__19 a__17 a__90))) 0) (>= (+ (* b__97 a__80) (* b__97 a__29 a__81) (* (- 0 1) (* b__97 a__91)) (* (- 0 1) (* b__97 a__25 a__92)) (* (- 0 1) (* b__97 a__18 a__26 a__92))) 0) (>= (+ (* b__97 a__82) (* (- 0 1) (* b__97 a__19 a__26 a__92))) 0) (>= (+ (* b__95 a__83) (* b__95 a__29 a__84) (* (- 0 1) (* b__95 a__69)) (* (- 0 1) (* b__95 a__67 a__70)) (* (- 0 1) (* b__95 a__18 a__68 a__70))) 0) (>= (+ (* b__95 a__85) (* (- 0 1) (* b__95 a__19 a__68 a__70))) 0) (>= (+ (* b__96 a__86) (* b__96 a__29 a__87) (* (- 0 1) (* b__96 a__93)) (* (- 0 1) (* b__96 a__16 a__94)) (* (- 0 1) (* b__96 a__18 a__17 a__94))) 0) (>= (+ (* b__96 a__88) (* (- 0 1) (* b__96 a__19 a__17 a__94))) 0) (>= (+ (* b__95 a__67) (* b__95 a__72 a__68) (* (- 0 1) (* b__95 a__66))) 0) (>= (+ (* b__95 a__67) (* (- 0 1) (* b__95 a__3))) 0) (>= (+ (* b__95 a__68) (* (- 0 1) (* b__95 a__4))) 0) (>= (+ (* b__97 a__89) (* b__97 a__29 a__90) (* (- 0 1) (* b__97 a__29))) 0) (>= (+ (* b__97 a__91) (* b__97 a__29 a__92) (* (- 0 1) (* b__97 a__29))) 0) (>= (+ (* b__96 a__93) (* b__96 a__29 a__94) (* (- 0 1) (* b__96 a__29))) 0) (>= (+ (* b__95 a__69) (* (- 0 1) (* b__95 a__42))) 0) (>= (+ (* b__95 a__70) (* (- 0 1) (* b__95 a__43))) 0) (>= (+ (* b__95 a__64) (* (- 0 1) (* b__95 a__7)) (* (- 0 1) (* b__95 a__66 a__8)) (* (- 0 1) (* b__95 a__63 a__9))) 0) (>= (+ (* b__95 a__64) (* (- 0 1) (* b__95 a__63))) 0) (>= (+ (* b__95 a__66) (* (- 0 1) (* b__95 a__65))) 0) (>= (+ (* b__95 a__7) (* (- 0 1) (* b__95 a__35))) 0) (>= (+ (* b__95 a__8) (* (- 0 1) (* b__95 a__36))) 0) (>= (+ (* b__95 a__9) (* (- 0 1) (* b__95 a__37))) 0) (>= (+ (* b__95 a__72) (* (- 0 1) (* b__95 a__71))) 0) (>= (+ a__1 (* a__3 a__2) (* (- 0 1) a__5)) 0) (>= (+ a__5 (* a__7 a__6) (* (- 0 1) a__10) (* (- 0 1) (* a__13 a__11)) (* (- 0 1) (* a__13 a__14 a__11)) (* (- 0 1) (* a__16 a__14 a__14 a__11)) (* (- 0 1) (* a__18 a__17 a__14 a__14 a__11)) (* (- 0 1) (* a__20 a__15 a__14 a__11)) (* (- 0 1) (* a__18 a__21 a__15 a__14 a__11)) (* (- 0 1) (* a__22 a__15 a__11)) (* (- 0 1) (* a__25 a__23 a__15 a__11)) (* (- 0 1) (* a__27 a__24 a__15 a__11)) (* (- 0 1) (* a__18 a__12))) 0) (>= (+ a__10 (* a__29 a__11) (* (- 0 1) a__5) (* (- 0 1) (* a__18 a__6))) 0) (>= (+ a__5 (* a__7 a__6) (* (- 0 1) a__30) (* (- 0 1) (* a__13 a__31)) (* (- 0 1) (* a__16 a__14 a__31)) (* (- 0 1) (* a__18 a__17 a__14 a__31)) (* (- 0 1) (* a__20 a__15 a__31)) (* (- 0 1) (* a__18 a__21 a__15 a__31)) (* (- 0 1) (* a__22 a__32)) (* (- 0 1) (* a__25 a__23 a__32)) (* (- 0 1) (* a__27 a__24 a__32))) 0) (>= (+ a__30 (* a__29 a__31) (* (- 0 1) a__1)) 0) (>= (+ a__1 (* a__20 a__2) (* (- 0 1) a__33)) 0) (>= (+ a__33 (* a__35 a__34) (* (- 0 1) a__30) (* (- 0 1) (* a__38 a__31)) (* (- 0 1) (* a__18 a__39 a__31)) (* (- 0 1) (* a__20 a__32)) (* (- 0 1) (* a__18 a__21 a__32))) 0) (>= (+ a__33 (* a__35 a__34) (* (- 0 1) a__40) (* (- 0 1) (* a__18 a__41))) 0) (>= (+ a__40 (* a__3 a__41) (* (- 0 1) a__33) (* (- 0 1) (* a__18 a__34))) 0) (>= (+ a__33 (* a__35 a__34) (* (- 0 1) a__1)) 0) (>= (+ a__1 (* a__22 a__2) (* (- 0 1) a__30)) 0) (>= (+ a__1 (* a__27 a__2) (* (- 0 1) a__40)) 0) (>= (+ a__40 (* a__3 a__41) (* (- 0 1) a__1)) 0) (>= (+ (* a__42 a__41) (* (- 0 1) (* a__18 a__41))) 0) (>= (+ a__40 (* a__42 a__41) (* (- 0 1) a__1)) 0) (>= (+ a__5 (* a__7 a__6) (* (- 0 1) a__30) (* (- 0 1) (* a__16 a__31)) (* (- 0 1) (* a__18 a__17 a__31)) (* (- 0 1) (* a__20 a__32)) (* (- 0 1) (* a__18 a__21 a__32))) 0) (>= (+ a__5 (* a__7 a__6) (* (- 0 1) a__44) (* (- 0 1) (* a__18 a__45))) 0) (>= (+ a__44 (* a__35 a__45) (* (- 0 1) a__46) (* (- 0 1) (* a__13 a__47)) (* (- 0 1) (* a__38 a__14 a__47)) (* (- 0 1) (* a__18 a__39 a__14 a__47)) (* (- 0 1) (* a__20 a__15 a__47)) (* (- 0 1) (* a__18 a__21 a__15 a__47)) (* (- 0 1) (* a__18 a__48)) (* (- 0 1) (* a__18 a__49))) 0) (>= (+ a__46 (* a__29 a__47) (* (- 0 1) a__50) (* (- 0 1) (* a__25 a__51)) (* (- 0 1) (* a__18 a__26 a__51)) (* (- 0 1) (* a__18 a__52))) 0) (>= (+ a__50 (* a__29 a__51) (* (- 0 1) a__44) (* (- 0 1) (* a__18 a__45))) 0) (>= (+ a__44 (* a__35 a__45) (* (- 0 1) a__30) (* (- 0 1) (* a__38 a__31)) (* (- 0 1) (* a__18 a__39 a__31)) (* (- 0 1) (* a__20 a__32)) (* (- 0 1) (* a__18 a__21 a__32))) 0) (>= (+ a__44 (* a__35 a__45) (* (- 0 1) a__40) (* (- 0 1) (* a__18 a__41))) 0) (>= (+ a__44 (* a__35 a__45) (* (- 0 1) a__1)) 0) (>= (+ a__50 (* a__29 a__51) (* (- 0 1) a__1)) 0) (>= (+ a__46 (* a__29 a__47) (* (- 0 1) a__53) (* (- 0 1) (* a__18 a__54))) 0) (>= (+ a__53 (* a__3 a__54) (* (- 0 1) a__55) (* (- 0 1) (* a__58 a__56)) (* (- 0 1) (* a__18 a__59 a__56)) (* (- 0 1) (* a__18 a__57))) 0) (>= (+ a__55 (* a__29 a__56) (* (- 0 1) a__44) (* (- 0 1) (* a__18 a__45))) 0) (>= (+ a__55 (* a__29 a__56) (* (- 0 1) a__1)) 0) (>= (+ a__53 (* a__3 a__54) (* (- 0 1) a__33) (* (- 0 1) (* a__18 a__34))) 0) (>= (+ a__53 (* a__3 a__54) (* (- 0 1) a__1)) 0) (>= (+ a__53 (* a__42 a__54) (* (- 0 1) a__60) (* (- 0 1) (* a__38 a__61)) (* (- 0 1) (* a__18 a__39 a__61)) (* (- 0 1) (* a__18 a__62))) 0) (>= (+ a__60 (* a__29 a__61) (* (- 0 1) a__53) (* (- 0 1) (* a__18 a__54))) 0) (>= (+ a__53 (* a__42 a__54) (* (- 0 1) a__40) (* (- 0 1) (* a__18 a__41))) 0) (>= (+ a__53 (* a__42 a__54) (* (- 0 1) a__1)) 0) (>= (+ a__60 (* a__29 a__61) (* (- 0 1) a__1)) 0) (>= (+ a__46 (* a__29 a__47) (* (- 0 1) a__1)) 0) (>= (+ a__5 (* a__7 a__6) (* (- 0 1) a__1)) 0) (>= (+ a__5 (* a__7 a__6) (* (- 0 1) a__53)) 0) (>= (+ a__10 (* a__29 a__11) (* (- 0 1) a__1)) 0) (not (and (= (+ a__1 (* a__3 a__2) (* (- 0 1) a__5)) 0) (= (+ a__5 (* a__7 a__6) (* (- 0 1) a__10) (* (- 0 1) (* a__13 a__11)) (* (- 0 1) (* a__13 a__14 a__11)) (* (- 0 1) (* a__16 a__14 a__14 a__11)) (* (- 0 1) (* a__18 a__17 a__14 a__14 a__11)) (* (- 0 1) (* a__20 a__15 a__14 a__11)) (* (- 0 1) (* a__18 a__21 a__15 a__14 a__11)) (* (- 0 1) (* a__22 a__15 a__11)) (* (- 0 1) (* a__25 a__23 a__15 a__11)) (* (- 0 1) (* a__27 a__24 a__15 a__11)) (* (- 0 1) (* a__18 a__12))) 0) (= (+ a__10 (* a__29 a__11) (* (- 0 1) a__5) (* (- 0 1) (* a__18 a__6))) 0) (= (+ a__5 (* a__7 a__6) (* (- 0 1) a__30) (* (- 0 1) (* a__13 a__31)) (* (- 0 1) (* a__16 a__14 a__31)) (* (- 0 1) (* a__18 a__17 a__14 a__31)) (* (- 0 1) (* a__20 a__15 a__31)) (* (- 0 1) (* a__18 a__21 a__15 a__31)) (* (- 0 1) (* a__22 a__32)) (* (- 0 1) (* a__25 a__23 a__32)) (* (- 0 1) (* a__27 a__24 a__32))) 0) (= (+ a__30 (* a__29 a__31) (* (- 0 1) a__1)) 0) (= (+ a__1 (* a__20 a__2) (* (- 0 1) a__33)) 0) (= (+ a__33 (* a__35 a__34) (* (- 0 1) a__30) (* (- 0 1) (* a__38 a__31)) (* (- 0 1) (* a__18 a__39 a__31)) (* (- 0 1) (* a__20 a__32)) (* (- 0 1) (* a__18 a__21 a__32))) 0) (= (+ a__33 (* a__35 a__34) (* (- 0 1) a__40) (* (- 0 1) (* a__18 a__41))) 0) (= (+ a__40 (* a__3 a__41) (* (- 0 1) a__33) (* (- 0 1) (* a__18 a__34))) 0) (= (+ a__33 (* a__35 a__34) (* (- 0 1) a__1)) 0) (= (+ a__1 (* a__22 a__2) (* (- 0 1) a__30)) 0) (= (+ a__1 (* a__27 a__2) (* (- 0 1) a__40)) 0) (= (+ a__40 (* a__3 a__41) (* (- 0 1) a__1)) 0) (= (+ (* a__42 a__41) (* (- 0 1) (* a__18 a__41))) 0) (= (+ a__40 (* a__42 a__41) (* (- 0 1) a__1)) 0) (= (+ a__5 (* a__7 a__6) (* (- 0 1) a__30) (* (- 0 1) (* a__16 a__31)) (* (- 0 1) (* a__18 a__17 a__31)) (* (- 0 1) (* a__20 a__32)) (* (- 0 1) (* a__18 a__21 a__32))) 0) (= (+ a__5 (* a__7 a__6) (* (- 0 1) a__44) (* (- 0 1) (* a__18 a__45))) 0) (= (+ a__44 (* a__35 a__45) (* (- 0 1) a__46) (* (- 0 1) (* a__13 a__47)) (* (- 0 1) (* a__38 a__14 a__47)) (* (- 0 1) (* a__18 a__39 a__14 a__47)) (* (- 0 1) (* a__20 a__15 a__47)) (* (- 0 1) (* a__18 a__21 a__15 a__47)) (* (- 0 1) (* a__18 a__48)) (* (- 0 1) (* a__18 a__49))) 0) (= (+ a__46 (* a__29 a__47) (* (- 0 1) a__50) (* (- 0 1) (* a__25 a__51)) (* (- 0 1) (* a__18 a__26 a__51)) (* (- 0 1) (* a__18 a__52))) 0) (= (+ a__50 (* a__29 a__51) (* (- 0 1) a__44) (* (- 0 1) (* a__18 a__45))) 0) (= (+ a__44 (* a__35 a__45) (* (- 0 1) a__30) (* (- 0 1) (* a__38 a__31)) (* (- 0 1) (* a__18 a__39 a__31)) (* (- 0 1) (* a__20 a__32)) (* (- 0 1) (* a__18 a__21 a__32))) 0) (= (+ a__44 (* a__35 a__45) (* (- 0 1) a__40) (* (- 0 1) (* a__18 a__41))) 0) (= (+ a__44 (* a__35 a__45) (* (- 0 1) a__1)) 0) (= (+ a__50 (* a__29 a__51) (* (- 0 1) a__1)) 0) (= (+ a__46 (* a__29 a__47) (* (- 0 1) a__53) (* (- 0 1) (* a__18 a__54))) 0) (= (+ a__53 (* a__3 a__54) (* (- 0 1) a__55) (* (- 0 1) (* a__58 a__56)) (* (- 0 1) (* a__18 a__59 a__56)) (* (- 0 1) (* a__18 a__57))) 0) (= (+ a__55 (* a__29 a__56) (* (- 0 1) a__44) (* (- 0 1) (* a__18 a__45))) 0) (= (+ a__55 (* a__29 a__56) (* (- 0 1) a__1)) 0) (= (+ a__53 (* a__3 a__54) (* (- 0 1) a__33) (* (- 0 1) (* a__18 a__34))) 0) (= (+ a__53 (* a__3 a__54) (* (- 0 1) a__1)) 0) (= (+ a__53 (* a__42 a__54) (* (- 0 1) a__60) (* (- 0 1) (* a__38 a__61)) (* (- 0 1) (* a__18 a__39 a__61)) (* (- 0 1) (* a__18 a__62))) 0) (= (+ a__60 (* a__29 a__61) (* (- 0 1) a__53) (* (- 0 1) (* a__18 a__54))) 0) (= (+ a__53 (* a__42 a__54) (* (- 0 1) a__40) (* (- 0 1) (* a__18 a__41))) 0) (= (+ a__53 (* a__42 a__54) (* (- 0 1) a__1)) 0) (= (+ a__60 (* a__29 a__61) (* (- 0 1) a__1)) 0) (= (+ a__46 (* a__29 a__47) (* (- 0 1) a__1)) 0) (= (+ a__5 (* a__7 a__6) (* (- 0 1) a__1)) 0) (= (+ a__5 (* a__7 a__6) (* (- 0 1) a__53)) 0) (= (+ a__10 (* a__29 a__11) (* (- 0 1) a__1)) 0))) (>= b__95 0) (>= 1 b__95) (>= a__31 0) (>= a__54 0) (>= a__34 0) (>= a__41 0) (>= a__45 0) (>= a__6 0) (>= a__56 0) (>= a__57 0) (>= a__61 0) (>= a__62 0) (>= a__47 0) (>= a__48 0) (>= a__49 0) (>= a__52 0) (>= a__11 0) (>= a__12 0) (>= a__32 0) (>= a__21 0) (>= a__78 0) (>= a__51 0) (>= a__79 0) (>= a__81 0) (>= a__82 0) (>= a__26 0) (>= a__23 0) (>= a__90 0) (>= a__74 0) (>= a__75 0) (>= a__76 0) (>= a__88 0) (>= a__17 0) (>= a__92 0) (>= a__87 0) (>= b__96 0) (>= 1 b__96) (>= a__14 0) (>= a__84 0) (>= a__15 0) (>= b__97 0) (>= 1 b__97) (>= a__4 0) (>= a__2 0) (>= a__8 0) (>= a__28 0) (>= a__24 0) (>= a__9 0) (>= a__19 0) (>= a__36 0) (>= a__39 0) (>= a__37 0) (>= a__43 0) (>= a__59 0) (>= a__18 0) (>= a__63 0) (>= a__64 0) (>= a__65 0) (>= a__66 0) (>= a__3 0) (>= a__67 0) (>= a__68 0) (>= a__42 0) (>= a__69 0) (>= a__70 0) (>= a__35 0) (>= a__7 0) (>= a__20 0) (>= a__58 0) (>= a__13 0) (>= a__38 0) (>= a__29 0) (>= a__22 0) (>= a__27 0) (>= a__71 0) (>= a__72 0) (>= a__16 0) (>= a__73 0) (>= a__25 0) (>= a__77 0) (>= a__80 0) (>= a__83 0) (>= a__85 0) (>= a__86 0) (>= a__89 0) (>= a__91 0) (>= a__93 0) (>= a__94 0) (>= a__1 0) (>= a__5 0) (>= a__10 0) (>= a__30 0) (>= a__33 0) (>= a__40 0) (>= a__44 0) (>= a__46 0) (>= a__50 0) (>= a__53 0) (>= a__55 0) (>= a__60 0)))
(check-sat)
;;(get-assignment)
;;(get-model)
(exit)
